	Costo	Iter.	Tiempo
1	547,87	109	4,859
2	865,52	329	59,046
3	849,46	345	300,672
4	1108,37	121	271,187
5	1431,02	70	300,734
6	560,96	326	66,578
7	951,39	92	302,187
8	905,09	97	301,515
9	1263,35	7	321,781
10	1518,82	3	357,999
11	1200,24	298	269,921
12	827,37	124	62,702
13	1670,58	186	210,827
14	905,03	197	112,234
